33D32945 STP File, STP Format Version 1.0

SECTION Result
Length 43
Time 0,077667
Algorithm HAKIMI
END

SECTION Comment
Name "grid_9"
END

SECTION Graph
Nodes 9
Edges 12
E 3 7 3
E 4 6 4
E 5 6 16
E 4 8 18
E 6 9 7
E 7 8 16
E 8 9 10
E 1 2 14
E 1 3 2
E 2 4 6
E 2 5 9
E 3 4 18
END

SECTION Terminals
Terminals 6
T 1
T 2
T 3
T 4
T 8
T 9
END

SECTION Solution
S 8 9 10
S 1 2 14
S 1 3 2
S 4 6 4
S 6 9 7
S 2 4 6
END

EOF
